num_offers = 25;
num_halls = 10;
start=[10,45,46,4,24,6,31,3,20,17,63,6,23,38,10,34,11,2,36,56,72,7,25,29,42];
end=[41,51,78,53,50,95,53,45,98,79,98,9,73,53,79,61,55,59,75,68,80,52,81,36,66];
price=[945,309,380,1211,2414,6929,2211,1526,7775,4346,1749,258,3098,1076,6183,1190,873,768,3182,459,469,2248,3806,500,263];
requirement=[516,564,973,811,631,652,347,711,550,972,848,710,540,352,274,478,836,359,614,401,416,466,412,771,339];
capacity=[476,931,841,643,903,253,385,700,554,756];
